p cnf 11 44
-4 -3 -5 0
-4 11 -3 0
-8 -6 5 0
-2 -1 -7 0
-2 -9 -3 0
9 -1 11 0
9 2 -5 0
-9 3 -11 0
4 7 3 0
6 -11 -5 0
-1 -7 -8 0
1 -10 7 0
-8 -3 -2 0
-11 -2 4 0
-11 -9 4 0
-11 8 -3 0
3 -9 -4 0
-8 6 -1 0
-8 -4 2 0
-1 -4 6 0
5 2 -7 0
-3 -4 -6 0
8 -1 -2 0
10 1 2 0
-5 10 -11 0
-7 11 4 0
-4 9 -10 0
-1 4 -6 0
-11 -9 5 0
-6 -10 1 0
-2 8 6 0
-1 6 -8 0
-9 -8 6 0
-2 -11 -3 0
10 5 8 0
8 3 2 0
-3 7 -6 0
5 2 -11 0
-10 -6 -8 0
7 4 8 0
1 -5 6 0
5 3 -2 0
-1 2 11 0
5 1 6 0
